proyfinal/src/viki/013/experimentInOfficeAgust.take6.output/c1a6566b-74cf-4320-bf1a-b74710817b52.als.dat
{'cnf.clauses': '118081',
 'cnf.totvars': '69608',
 'conflict literals': '197',
 'conflicts': '38',
 'decisions': '2544',
 'memused.mb': '16.49',
 'outcome': 'UNSAT',
 'propagations': '73883',
 'restarts': '1',
 'solver.msecs': 34,
 'task.msecs': 83}
