proyfinal/src/viki/013/experimentInOfficeAgust.take6.output/c1a6566b-74cf-4320-bf1a-b74710817b52.als.out
Reading from standard input... Use '--help' for help.
============================[ Problem Statistics ]=============================
|                                                                             |
|  Number of variables:         69608                                         |
|  Number of clauses:          118081                                         |
|  Parse time:                   0.03 s                                       |
|                                                                             |
============================[ Search Statistics ]==============================
| Conflicts |          ORIGINAL         |          LEARNT          | Progress |
|           |    Vars  Clauses Literals |    Limit  Clauses Lit/Cl |          |
===============================================================================
===============================================================================
restarts              : 1
conflicts             : 38             (1100 /sec)
decisions             : 2544           (0.00 % random) (73613 /sec)
propagations          : 73883          (2137880 /sec)
conflict literals     : 197            (17.57 % deleted)
Memory used           : 16.49 MB
CPU time              : 0.034559 s

UNSATISFIABLE
